
(set-logic ALL) 

(declare-datatype MyList ((Nil) (Cons (head Real) (tail MyList)) )) 
(declare-fun l0 () MyList) 
(declare-fun l1 () MyList) 
(declare-fun l2 () MyList) 
(declare-fun l3 () MyList) 
(declare-fun i0 () Real) 
(declare-fun i1 () Real) 
(assert (or (= l3 Nil) (= l3 Nil)) )
(assert (is-Nil l2) )
(assert (or (= l3 l1) (= l0 Nil) (is-Nil Nil)) )
(assert (is-Nil Nil) )
(assert (not (is-Nil Nil)) )
(assert (not (= l3 Nil)) )
(assert (not (= l0 l1)) )
(assert (and (is-Nil Nil) (is-Cons Nil) (= l0 Nil)) )
(check-sat)
